
Gurobi 11.0.3 (mac64[arm], gurobi_cl) logging started Mon Nov  4 09:27:48 2024

Set parameter TimeLimit to value 600
Set parameter NoRelHeurTime to value 600
Set parameter LogFile to value "gurobi.log"
Using license file /Users/sakai/gurobi.lic
Restricted license - for non-production use only - expires 2025-11-24

Gurobi Optimizer version 11.0.3 build v11.0.3rc0 (mac64[arm] - Darwin 22.6.0 22H123)
Copyright (c) 2024, Gurobi Optimization, LLC

Read LP format model from file ../../../miplib2024_submission/instances.20241102/bnn_mnist_back_image_32_label3_adversarial_norm_0.lp
Reading time = 0.09 seconds
: 1092 rows, 1295 columns, 397843 nonzeros

CPU model: Apple M1
Thread count: 8 physical cores, 8 logical processors, using up to 8 threads

Optimize a model with 1092 rows, 1295 columns and 397843 nonzeros
Model fingerprint: 0x733338e8
Variable types: 1 continuous, 1294 integer (1294 binary)
Coefficient statistics:
  Matrix range     [1e+00, 4e+02]
  Objective range  [1e+00, 3e+02]
  Bounds range     [1e+00, 1e+00]
  RHS range        [1e+00, 4e+02]
Presolve removed 12 rows and 3 columns
Presolve time: 0.95s
Presolved: 1080 rows, 1292 columns, 397275 nonzeros
Variable types: 0 continuous, 1292 integer (1292 binary)
Starting NoRel heuristic
Found phase-1 solution: relaxation 222
Found phase-1 solution: relaxation 218
Found phase-1 solution: relaxation 193
Found phase-1 solution: relaxation 186
Found phase-1 solution: relaxation 180
Found phase-1 solution: relaxation 148
Found phase-1 solution: relaxation 118
Found phase-1 solution: relaxation 97
Found phase-1 solution: relaxation 90
Found phase-1 solution: relaxation 86
Found phase-1 solution: relaxation 57
Found phase-1 solution: relaxation 34
Found phase-1 solution: relaxation 0
Found heuristic solution: objective 356.0000000
Transition to phase 2
Elapsed time for NoRel heuristic: 6s (best bound 0)
Found heuristic solution: objective 281.0000000
Found heuristic solution: objective 242.0000000
Found heuristic solution: objective 215.0000000
Elapsed time for NoRel heuristic: 13s (best bound 0)
Found heuristic solution: objective 211.0000000
Found heuristic solution: objective 193.0000000
Found heuristic solution: objective 182.0000000
Found heuristic solution: objective 172.0000000
Found heuristic solution: objective 165.0000000
Elapsed time for NoRel heuristic: 18s (best bound 0)
Found heuristic solution: objective 164.0000000
Found heuristic solution: objective 158.0000000
Elapsed time for NoRel heuristic: 27s (best bound 0)
Found heuristic solution: objective 150.0000000
Found heuristic solution: objective 148.0000000
Found heuristic solution: objective 144.0000000
Found heuristic solution: objective 140.0000000
Elapsed time for NoRel heuristic: 33s (best bound 0)
Found heuristic solution: objective 136.0000000
Found heuristic solution: objective 134.0000000
Elapsed time for NoRel heuristic: 39s (best bound 0)
Elapsed time for NoRel heuristic: 45s (best bound 0)
Found heuristic solution: objective 132.0000000
Found heuristic solution: objective 130.0000000
Elapsed time for NoRel heuristic: 52s (best bound 0)
Found heuristic solution: objective 120.0000000
Elapsed time for NoRel heuristic: 59s (best bound 0)
Elapsed time for NoRel heuristic: 67s (best bound 0)
Elapsed time for NoRel heuristic: 78s (best bound 0)
Elapsed time for NoRel heuristic: 113s (best bound 0)
Elapsed time for NoRel heuristic: 130s (best bound 0)
Elapsed time for NoRel heuristic: 150s (best bound 0)
Elapsed time for NoRel heuristic: 209s (best bound 0)
Found heuristic solution: objective 118.0000000
Found heuristic solution: objective 116.0000000
Found heuristic solution: objective 115.0000000
Found heuristic solution: objective 114.0000000
Found heuristic solution: objective 112.0000000
Elapsed time for NoRel heuristic: 236s (best bound 0)
Found heuristic solution: objective 106.0000000
Found heuristic solution: objective 103.0000000
Elapsed time for NoRel heuristic: 245s (best bound 0)
Elapsed time for NoRel heuristic: 251s (best bound 0)
Found heuristic solution: objective 99.0000000
Found heuristic solution: objective 97.0000000
Found heuristic solution: objective 87.0000000
Found heuristic solution: objective 84.0000000
Elapsed time for NoRel heuristic: 261s (best bound 0)
Elapsed time for NoRel heuristic: 267s (best bound 0)
Found heuristic solution: objective 55.0000000
Elapsed time for NoRel heuristic: 281s (best bound 0)
Found heuristic solution: objective 51.0000000
Elapsed time for NoRel heuristic: 286s (best bound 0)
Found heuristic solution: objective 48.0000000
Found heuristic solution: objective 42.0000000
Elapsed time for NoRel heuristic: 292s (best bound 0)
Found heuristic solution: objective 41.0000000
Found heuristic solution: objective 40.0000000
Elapsed time for NoRel heuristic: 299s (best bound 0)
Found heuristic solution: objective 39.0000000
Elapsed time for NoRel heuristic: 306s (best bound 0)
Found heuristic solution: objective 38.0000000
Elapsed time for NoRel heuristic: 311s (best bound 0)
Elapsed time for NoRel heuristic: 319s (best bound 0)
Found heuristic solution: objective 36.0000000
Elapsed time for NoRel heuristic: 333s (best bound 0)
Elapsed time for NoRel heuristic: 339s (best bound 0)
Found heuristic solution: objective 33.0000000
Found heuristic solution: objective 22.0000000
Elapsed time for NoRel heuristic: 352s (best bound 0)
Found heuristic solution: objective 13.0000000
Found heuristic solution: objective 9.0000000
Elapsed time for NoRel heuristic: 361s (best bound 0)
Found heuristic solution: objective 6.0000000
Elapsed time for NoRel heuristic: 373s (best bound 0)
Found heuristic solution: objective 5.0000000
Found heuristic solution: objective 4.0000000
Elapsed time for NoRel heuristic: 379s (best bound 0)
Found heuristic solution: objective 3.0000000
Elapsed time for NoRel heuristic: 386s (best bound 0)
Found heuristic solution: objective 2.0000000
Elapsed time for NoRel heuristic: 393s (best bound 0)
Elapsed time for NoRel heuristic: 399s (best bound 0)
Elapsed time for NoRel heuristic: 404s (best bound 0)
Elapsed time for NoRel heuristic: 418s (best bound 0)
Elapsed time for NoRel heuristic: 441s (best bound 0)
Elapsed time for NoRel heuristic: 454s (best bound 0)
Elapsed time for NoRel heuristic: 474s (best bound 0)
Elapsed time for NoRel heuristic: 490s (best bound 0)
Elapsed time for NoRel heuristic: 509s (best bound 0)
Elapsed time for NoRel heuristic: 531s (best bound 0)
Elapsed time for NoRel heuristic: 550s (best bound 0)
Elapsed time for NoRel heuristic: 564s (best bound 0)
Elapsed time for NoRel heuristic: 584s (best bound 0)
Elapsed time for NoRel heuristic: 599s (best bound 0)
NoRel heuristic complete

Explored 0 nodes (0 simplex iterations) in 600.26 seconds (501.32 work units)
Thread count was 8 (of 8 available processors)

Solution count 10: 2 3 4 ... 36

Time limit reached
Best objective 2.000000000000e+00, best bound 0.000000000000e+00, gap 100.0000%

Wrote result file 'bnn_mnist_back_image_32_label3_adversarial_norm_0.sol'

